
Gurobi 6.5.2 (linux64) logging started Wed Sep 14 14:58:48 2016

Optimize a model with 41 rows, 77 columns and 159 nonzeros
Coefficient statistics:
  Matrix range    [1e+00, 2e+00]
  Objective range [2e+00, 1e+02]
  Bounds range    [1e+00, 1e+00]
  RHS range       [1e+00, 1e+00]
Presolve removed 20 rows and 17 columns
Presolve time: 0.00s
Presolved: 21 rows, 60 columns, 119 nonzeros
Variable types: 0 continuous, 60 integer (60 binary)
Found heuristic solution: objective 1044.0000000

Root relaxation: objective 7.190000e+02, 22 iterations, 0.00 seconds

    Nodes    |    Current Node    |     Objective Bounds      |     Work
 Expl Unexpl |  Obj  Depth IntInf | Incumbent    BestBd   Gap | It/Node Time

     0     0  719.00000    0    6 1044.00000  719.00000  31.1%     -    0s
H    0     0                     902.0000000  719.00000  20.3%     -    0s
*    0     0               0     729.0000000  729.00000  0.00%     -    0s

Cutting planes:
  Gomory: 3
  Cover: 4
  Zero half: 1
  Lazy constraints: 3

Explored 0 nodes (25 simplex iterations) in 0.00 seconds
Thread count was 8 (of 8 available processors)

Optimal solution found (tolerance 1.00e-04)
Best objective 7.290000000000e+02, best bound 7.290000000000e+02, gap 0.0%
